
Gurobi 9.1.2 (win64, Java) logging started Fri Nov  5 12:05:05 2021

Academic license - for non-commercial use only - expires 2022-10-30
Gurobi Optimizer version 9.1.2 build v9.1.2rc0 (win64)
Thread count: 6 physical cores, 12 logical processors, using up to 12 threads
Optimize a model with 50 rows, 400 columns and 800 nonzeros
Model fingerprint: 0xdb660b3f
Variable types: 0 continuous, 400 integer (400 binary)
Coefficient statistics:
  Matrix range     [1e+00, 1e+03]
  Objective range  [1e+01, 9e+02]
  Bounds range     [1e+00, 1e+00]
  RHS range        [1e+00, 2e+03]
Found heuristic solution: objective 12554.000000
Presolve removed 0 rows and 81 columns
Presolve time: 0.00s
Presolved: 50 rows, 319 columns, 638 nonzeros
Variable types: 0 continuous, 319 integer (319 binary)
Presolved: 50 rows, 319 columns, 638 nonzeros


Root relaxation: objective 1.655965e+04, 84 iterations, 0.00 seconds

    Nodes    |    Current Node    |     Objective Bounds      |     Work
 Expl Unexpl |  Obj  Depth IntInf | Incumbent    BestBd   Gap | It/Node Time

     0     0 16559.6484    0   15 12554.0000 16559.6484  31.9%     -    0s
H    0     0                    15841.000000 16559.6484  4.54%     -    0s
H    0     0                    15979.000000 16559.6484  3.63%     -    0s
H    0     0                    16041.000000 16559.6484  3.23%     -    0s
H    0     0                    16057.000000 16559.6484  3.13%     -    0s
     0     0 16530.9677    0   30 16057.0000 16530.9677  2.95%     -    0s
H    0     0                    16098.000000 16530.9677  2.69%     -    0s
H    0     0                    16135.000000 16530.9677  2.45%     -    0s
     0     0 16530.9677    0   31 16135.0000 16530.9677  2.45%     -    0s
     0     0 16519.5799    0   40 16135.0000 16519.5799  2.38%     -    0s
     0     0 16519.5799    0   32 16135.0000 16519.5799  2.38%     -    0s
H    0     0                    16224.000000 16519.5799  1.82%     -    0s
     0     0 16519.5799    0   46 16224.0000 16519.5799  1.82%     -    0s
     0     0 16519.5799    0   28 16224.0000 16519.5799  1.82%     -    0s
     0     2 16519.5799    0   14 16224.0000 16519.5799  1.82%     -    0s
H   35    44                    16261.000000 16519.5799  1.59%  46.9    0s
H   73    86                    16314.000000 16519.5799  1.26%  33.4    0s
H  153   219                    16355.000000 16519.5799  1.01%  28.4    0s
H  901   652                    16392.000000 16519.5799  0.78%  17.6    0s
H  910   639                    16401.000000 16519.5799  0.72%  17.7    0s
H 1258   844                    16510.000000 16519.5799  0.06%  18.8    0s

Cutting planes:
  Gomory: 26
  Cover: 25
  Clique: 5
  MIR: 19
  StrongCG: 17
  Flow cover: 8
  Zero half: 10
  RLT: 2

Explored 1258 nodes (24599 simplex iterations) in 0.43 seconds
Thread count was 12 (of 12 available processors)

Solution count 10: 16510 16401 16392 ... 16057

Optimal solution found (tolerance 1.00e-04)
Best objective 1.651000000000e+04, best bound 1.651000000000e+04, gap 0.0000%
